(declare-const delta_param2@pos Int)
(declare-const delta_param2@width Int)
(declare-const delta_param1 Int)
(declare-const delta_param0@width Int)
(declare-const delta_param1@width Int)
(declare-const delta_param1@pos Int)
(declare-const delta_j Int)
(declare-const delta_k Int)
(declare-const delta_param0@pos Int)
(declare-const delta_param0 Int)
(declare-const delta_param2 Int)
(assert (exists
         ((|j'?1| Int) (|param0'?2| Int) (|param1'?3| Int) (|param2'?4| Int)
            (|param0@pos'?5| Int) (|param1@pos'?6| Int) (|param2@pos'?7| Int)
            (|param0@width'?8| Int) (|param1@width'?9| Int)
            (|param2@width'?10| Int) (|S1,0?11| Real) (|k'?12| Int)
            (KSUM1?13 Int) (|K1,0?14| Int) (K?15 Int)
            (|param2@width'?16| Int) (|param1@width'?17| Int)
            (|param0@width'?18| Int) (|param2@pos'?19| Int)
            (|param1@pos'?20| Int) (|param0@pos'?21| Int) (|param2'?22| Int)
            (|param1'?23| Int) (|param0'?24| Int) (|k'?25| Int)
            (stderr?26 Int) (stderr@pos?27 Int) (stderr@width?28 Int)
            (np?29 Int) (k?30 Int) (nq?31 Int) (j?32 Int) (i?33 Int)
            (param2@width?34 Int) (param2@pos?35 Int) (param2?36 Int)
            (param1?37 Int) (param1@pos?38 Int) (param1@width?39 Int)
            (param0?40 Int) (param0@pos?41 Int) (param0@width?42 Int))
         (and (<= (- j?32) 0) (<= (- i?33) 0) (< (+ (- nq?31) j?32) 0)
                (<= (- K?15) 0) (<= (- |K1,0?14|) 0)
                (= (+ |K1,0?14| (- K?15)) 0) (<= (+ KSUM1?13 (- K?15)) 0)
                (= (+ (- |S1,0?11|) |k'?12| (- |K1,0?14|)) 0)
                (= (+ (- KSUM1?13) |K1,0?14|) 0) (= |S1,0?11| 0)
                (or (and (= K?15 0)
                           (= (+ (- |param2@width'?10|) param2@width?34) 0)
                           (= (+ (- |param1@width'?9|) param1@width?39) 0)
                           (= (+ (- |param0@width'?8|) param0@width?42) 0)
                           (= (+ (- |param2@pos'?7|) param2@pos?35) 0)
                           (= (+ (- |param1@pos'?6|) param1@pos?38) 0)
                           (= (+ (- |param0@pos'?5|) param0@pos?41) 0)
                           (= (+ (- |param2'?4|) param2?36) 0)
                           (= (+ (- |param1'?3|) param1?37) 0)
                           (= (+ (- |param0'?2|) param0?40) 0)
                           (= (- |k'?12|) 0))
                      (and (<= (+ (- K?15) 1) 0) (<= (+ (- np?29) 1) 0)
                             (<= (+ (mod i?33 20) -19) 0)
                             (<= (- (mod i?33 20)) 0) (<= (- i?33) 0)
                             (= (+ stderr?26 (- |param0'?2|)) 0)
                             (= (+ stderr@pos?27 (- |param0@pos'?5|)) 0)
                             (= (+ stderr@width?28 (- |param0@width'?8|)) 0)
                             (<= (+ (- np?29) |k'?12|) 0)
                             (<= (+ (mod i?33 20) -19) 0)
                             (<= (- (mod i?33 20)) 0) (<= (- i?33) 0)
                             (<= (+ (- |k'?12|) 1) 0)))
                (= (+ |k'?12| (- K?15)) 0) (<= (- K?15) 0) (<= (- |k'?12|) 0)
                (<= (- i?33) 0) (<= (+ np?29 (- |k'?12|)) 0)
                (= (+ |param2@width'?16| (- |param2@width'?10|)) 0)
                (= (+ |param1@width'?17| (- |param1@width'?9|)) 0)
                (= (+ |param0@width'?18| (- |param0@width'?8|)) 0)
                (= (+ |param2@pos'?19| (- |param2@pos'?7|)) 0)
                (= (+ |param1@pos'?20| (- |param1@pos'?6|)) 0)
                (= (+ |param0@pos'?21| (- |param0@pos'?5|)) 0)
                (= (+ |param2'?22| (- |param2'?4|)) 0)
                (= (+ |param1'?23| (- |param1'?3|)) 0)
                (= (+ |param0'?24| (- |param0'?2|)) 0)
                (= (+ |k'?25| (- |k'?12|)) 0) (= (+ |j'?1| (- j?32) -1) 0)
                (= delta_j (+ |j'?1| (- j?32)))
                (= delta_k (+ |k'?25| (- k?30)))
                (= delta_param0 (+ |param0'?24| (- param0?40)))
                (= delta_param1 (+ |param1'?23| (- param1?37)))
                (= delta_param2 (+ |param2'?22| (- param2?36)))
                (= delta_param0@pos (+ |param0@pos'?21| (- param0@pos?41)))
                (= delta_param1@pos (+ |param1@pos'?20| (- param1@pos?38)))
                (= delta_param2@pos (+ |param2@pos'?19| (- param2@pos?35)))
                (= delta_param0@width (+ |param0@width'?18|
                                           (- param0@width?42)))
                (= delta_param1@width (+ |param1@width'?17|
                                           (- param1@width?39)))
                (= delta_param2@width (+ |param2@width'?16|
                                           (- param2@width?34))))))
(check-sat)
